(declare-datatypes ((List_Int 0)) (((Nil_List_Int ) (Cons_List_Int (Cons_List_Int_0 Int) (Cons_List_Int_1 List_Int)))))
(declare-fun fn_count (Int List_Int) Int)
(declare-fun fn_length_Int (List_Int) Int)
(declare-fun fn_is_sorted (List_Int) Bool)
(declare-fun fn_merge (List_Int List_Int) List_Int)
(assert (forall ((p0 Int) (p1 List_Int)) (! (= (fn_count p0 p1) (ite ((_ is Nil_List_Int) p1) 0 (ite (= (Cons_List_Int_0 p1) p0) (+ 1 (fn_count p0 (Cons_List_Int_1 p1))) (fn_count p0 (Cons_List_Int_1 p1))))) :pattern ((fn_count p0 p1)))))
(assert (forall ((p0 List_Int)) (! (= (fn_length_Int p0) (ite ((_ is Nil_List_Int) p0) 0 (+ 1 (fn_length_Int (Cons_List_Int_1 p0))))) :pattern ((fn_length_Int p0)))))
(assert (forall ((p0 List_Int)) (! (= (fn_is_sorted p0) (ite ((_ is Nil_List_Int) p0) true (ite ((_ is Nil_List_Int) (Cons_List_Int_1 p0)) true (and (<= (Cons_List_Int_0 p0) (Cons_List_Int_0 (Cons_List_Int_1 p0))) (fn_is_sorted (Cons_List_Int_1 p0)))))) :pattern ((fn_is_sorted p0)))))
(assert (forall ((p0 List_Int) (p1 List_Int)) (! (= (fn_merge p0 p1) (ite ((_ is Nil_List_Int) p0) p1 (ite ((_ is Nil_List_Int) p1) p0 (ite (<= (Cons_List_Int_0 p0) (Cons_List_Int_0 p1)) (Cons_List_Int (Cons_List_Int_0 p0) (fn_merge (Cons_List_Int_1 p0) p1)) (Cons_List_Int (Cons_List_Int_0 p1) (fn_merge p0 (Cons_List_Int_1 p1))))))) :pattern ((fn_merge p0 p1)))))
(assert (forall ((q0 List_Int)) (<= 0 (fn_length_Int q0))))
(assert (forall ((q0 Int)) (= (fn_length_Int Nil_List_Int) 0)))
(assert (forall ((q0 Int) (q1 List_Int)) (= (fn_length_Int (Cons_List_Int q0 q1)) (+ 1 (fn_length_Int q1)))))
(assert (forall ((q0 Int) (q1 List_Int) (q2 List_Int)) (= (fn_count q0 (fn_merge q1 q2)) (+ (fn_count q0 q1) (fn_count q0 q2)))))
(assert (forall ((q0 List_Int) (q1 List_Int)) (ite (and (fn_is_sorted q0) (fn_is_sorted q1)) (fn_is_sorted (fn_merge q0 q1)) true)))
(declare-const b0 List_Int)
(declare-const b1 List_Int)
(assert (not (= (fn_length_Int (fn_merge b0 b1)) (+ (fn_length_Int b0) (fn_length_Int b1)))))
(check-sat)
